V_100_1.txt

VEHICLE     CAPACITY  LOCATIONS  CUSTOMER  OPTIONS  PRIORITIES  NUMTYPS
10		150		97		100		152		3		4

CUSTOMER  DEMAND
0	 13
1	 17
2	 10
3	 19
4	 15
5	 16
6	 19
7	 12
8	 20
9	 13
10	 17
11	 15
12	 15
13	 12
14	 12
15	 16
16	 19
17	 12
18	 17
19	 15
20	 15
21	 11
22	 10
23	 15
24	 18
25	 18
26	 17
27	 14
28	 12
29	 18
30	 11
31	 15
32	 13
33	 20
34	 14
35	 18
36	 16
37	 18
38	 20
39	 10
40	 20
41	 20
42	 20
43	 10
44	 10
45	 19
46	 19
47	 10
48	 11
49	 16
50	 10
51	 19
52	 20
53	 18
54	 15
55	 18
56	 14
57	 10
58	 15
59	 17
60	 10
61	 11
62	 13
63	 19
64	 13
65	 18
66	 15
67	 15
68	 11
69	 14
70	 18
71	 18
72	 11
73	 10
74	 15
75	 17
76	 12
77	 13
78	 10
79	 20
80	 14
81	 17
82	 19
83	 15
84	 17
85	 10
86	 12
87	 14
88	 17
89	 16
90	 13
91	 11
92	 17
93	 16
94	 12
95	 12
96	 19
97	 19
98	 16
99	 14

LOCATION  XCOORD  YCOORD  CAP  READY  DUE  TYP  SERVICETIME
0		25		35		-1		0		720	 0		0
1		3		8		-1		154		214		 2		6
2		20		48		-1		300		360		 2		6
3		2		23		-1		395		455		 2		6
4		46		17		-1		597		657		 2		6
5		23		43		-1		292		352		 2		6
6		39		32		-1		51		111		 2		6
7		49		33		-1		591		651		 2		6
8		37		34		-1		207		267		 2		6
9		35		48		-1		565		625		 2		6
10		6		37		-1		513		573		 2		6
11		16		30		-1		284		344		 2		6
12		26		17		-1		658		718		 2		6
13		5		44		-1		423		483		 2		6
14		22		41		-1		459		519		 2		6
15		31		32		-1		198		258		 2		6
16		48		44		-1		648		708		 2		6
17		28		44		-1		60		120		 2		6
18		23		33		-1		619		679		 2		6
19		9		24		-1		496		556		 2		6
20		35		4		-1		636		696		 2		6
21		18		9		-1		553		613		 2		6
22		8		6		-1		433		493		 2		6
23		15		41		-1		402		462		 2		6
24		24		45		-1		446		506		 2		6
25		24		6		-1		405		465		 2		6
26		22		4		-1		499		559		 2		6
27		6		12		-1		168		228		 2		6
28		8		3		-1		514		574		 2		6
29		22		8		-1		508		568		 2		6
30		13		20		-1		459		519		 2		6
31		36		14		-1		200		260		 2		6
32		8		27		-1		125		185		 2		6
33		11		26		-1		52		112		 2		6
34		42		44		-1		114		174		 2		6
35		44		17		-1		435		495		 2		6
36		45		21		-1		590		650		 2		6
37		26		1		-1		473		533		 2		6
38		25		15		-1		273		333		 2		6
39		13		4		-1		592		652		 2		6
40		34		31		-1		633		693		 2		6
41		22		39		-1		519		579		 2		6
42		38		31		-1		507		567		 2		6
43		40		8		-1		324		384		 2		6
44		36		1		-1		150		210		 2		6
45		12		5		-1		364		424		 2		6
46		37		44		-1		445		505		 2		6
47		27		18		-1		198		258		 2		6
48		5		33		-1		309		369		 2		6
49		13		48		-1		345		405		 2		6
50		26		28		-1		524		584		 2		6
51		19		3		-1		55		115		 2		6
52		17		42		-1		455		515		 2		6
53		45		39		-1		530		590		 2		6
54		46		2		-1		507		567		 2		6
55		19		8		-1		501		561		 2		6
56		31		43		-1		564		624		 2		6
57		8		16		-1		386		446		 2		6
58		19		7		-1		551		611		 2		6
59		30		20		-1		491		551		 2		6
60		23		47		-1		615		675		 2		6
61		43		1		-1		258		318		 2		6
62		28		35		-1		192		252		 2		6
63		42		5		-1		249		309		 2		6
64		46		45		-1		42		102		 2		6
65		26		11		-1		530		590		 2		6
66		45		48		-1		545		605		 2		6
67		43		43		-1		162		222		 2		6
68		3		30		-1		422		482		 2		6
69		47		18		-1		462		522		 2		6
70		25		33		-1		384		444		 2		6
71		43		41		-1		300		360		 2		6
72		45		1		-1		32		92		 2		6
73		13		8		-1		255		315		 2		6
74		43		33		-1		45		105		 2		6
75		50		15		-1		89		149		 2		6
76		26		40		-1		346		406		 2		6
77		41		15		3		338		578		 1		4
78		37		20		3		37		277		 1		4
79		28		24		5		261		501		 1		4
80		5		32		4		349		589		 1		4
81		15		40		3		10		250		 1		4
82		10		16		4		45		285		 1		4
83		42		29		5		73		313		 1		4
84		15		13		5		261		501		 1		4
85		36		13		5		451		691		 1		4
86		27		12		5		41		281		 1		4
87		30		11		3		472		712		 1		4
88		6		8		3		367		607		 1		4
89		9		21		3		64		304		 1		4
90		15		29		3		460		700		 1		4
91		24		25		5		150		390		 1		4
92		38		42		4		460		700		 1		4
93		39		21		3		335		575		 1		4
94		31		31		3		349		589		 1		4
95		36		30		5		46		286		 1		4
96		6		25		5		241		481		 1		4
OPTION  LOCATION  CUSTOMER  PRIO  SERVICETIME   COST
0		79		0		0		2		0
1		90		1		0		2		0
2		89		2		0		2		0
3		85		3		0		2		0
4		84		4		0		2		0
5		89		5		0		2		0
6		95		6		0		2		0
7		79		7		0		2		0
8		84		8		0		2		0
9		87		9		0		2		0
10		82		10		0		2		0
11		87		11		0		2		0
12		87		12		0		2		0
13		85		13		0		2		0
14		81		14		0		2		0
15		88		15		0		2		0
16		84		16		0		2		0
17		84		17		0		2		0
18		95		18		0		2		0
19		77		19		0		2		0
20		77		20		0		2		0
21		82		21		0		2		0
22		90		22		0		2		0
23		81		23		0		2		0
24		1		24		0		5		0
25		2		25		0		5		0
26		3		26		0		5		0
27		4		27		0		5		0
28		5		28		0		5		0
29		6		29		0		5		0
30		7		30		0		5		0
31		8		31		0		5		0
32		9		32		0		5		0
33		10		33		0		5		0
34		11		34		0		5		0
35		12		35		0		5		0
36		13		36		0		5		0
37		14		37		0		5		0
38		15		38		0		5		0
39		16		39		0		5		0
40		17		40		0		5		0
41		18		41		0		5		0
42		19		42		0		5		0
43		20		43		0		5		0
44		21		44		0		5		0
45		22		45		0		5		0
46		23		46		0		5		0
47		24		47		0		5		0
48		25		48		0		5		0
49		86		48		1		2		0
50		26		49		0		5		0
51		83		49		1		2		0
52		27		50		1		5		0
53		92		50		0		2		0
54		28		51		0		5		0
55		87		51		1		2		0
56		29		52		0		5		0
57		83		52		1		2		0
58		30		53		0		5		0
59		84		53		1		2		0
60		31		54		1		5		0
61		89		54		0		2		0
62		32		55		1		5		0
63		80		55		0		2		0
64		33		56		1		5		0
65		82		56		0		2		0
66		34		57		1		5		0
67		85		57		0		2		0
68		35		58		0		5		0
69		83		58		1		2		0
70		36		59		0		5		0
71		83		59		1		2		0
72		37		60		1		5		0
73		85		60		0		2		0
74		38		61		0		5		0
75		91		61		1		2		0
76		39		62		1		5		0
77		86		62		0		2		0
78		40		63		1		5		0
79		90		63		0		2		0
80		41		64		1		5		0
81		89		64		0		2		0
82		42		65		0		5		0
83		93		65		1		2		0
84		43		66		0		5		0
85		92		66		1		2		0
86		44		67		0		5		0
87		78		67		1		2		0
88		45		68		0		5		0
89		86		68		1		2		0
90		46		69		0		5		0
91		79		69		1		2		0
92		47		70		0		5		0
93		87		70		1		2		0
94		48		71		0		5		0
95		89		71		1		2		0
96		49		72		1		5		0
97		96		72		0		2		0
98		50		73		1		5		0
99		84		73		0		2		0
100		51		74		1		5		0
101		88		74		0		2		0
102		52		75		0		5		0
103		83		75		1		2		0
104		53		76		1		5		0
105		94		76		0		2		0
106		54		77		1		5		0
107		78		77		0		2		0
108		55		78		1		5		0
109		81		78		0		2		0
110		56		79		0		5		0
111		89		79		1		2		0
112		57		80		0		5		0
113		85		80		1		2		0
114		58		81		0		5		0
115		93		81		1		2		0
116		59		82		0		5		0
117		86		82		1		2		0
118		60		83		1		5		0
119		85		83		0		2		0
120		61		84		0		5		0
121		77		84		1		2		0
122		62		85		1		5		0
123		91		85		0		2		0
124		63		86		1		5		0
125		85		86		0		2		0
126		64		87		1		5		0
127		93		87		0		2		0
128		65		88		0		5		0
129		79		88		1		2		0
130		66		89		1		5		0
131		77		89		0		2		0
132		67		90		0		5		0
133		93		90		1		2		0
134		68		91		1		5		0
135		88		91		0		2		0
136		69		92		1		5		0
137		93		92		0		2		0
138		70		93		0		5		0
139		90		93		1		2		0
140		71		94		0		5		0
141		95		94		1		2		0
142		72		95		0		5		0
143		87		95		1		2		0
144		73		96		1		5		0
145		87		96		0		2		0
146		74		97		1		5		0
147		96		97		0		2		0
148		75		98		0		5		0
149		96		98		1		2		0
150		76		99		1		5		0
151		92		99		0		2		0
